&control
    restart_mode ='from_scratch'
    wf_collect = .false.
    prefix ='cc'
    pseudo_dir = './'
    outdir = './'
    tprnfor = .true.
    tstress = .true.
    calculation = 'bands'
    title = 'GNR'
/
&system
    ecutwfc = 150.0
    ecutrho = 600.0
    occupations = 'smearing'
    degauss = 0.005
    ibrav = 8
    celldm(1) = 42.0
    celldm(2) = 0.192
    celldm(3) = 1.000
    nat = 18
    ntyp = 2
    nbnd = 60
    occupations = 'fixed'
    nosym    = .false.
        
/
&electrons
   diagonalization = 'david'
   diago_david_ndim = 4
   diago_full_acc = .true.
   electron_maxstep = 500
   mixing_beta = 0.05
   conv_thr = 1.0d-8
 /
&ions
 /
&cell
 /
ATOMIC_SPECIES
H 1.0079 H.pz-rrkjus_psl.1.0.0.UPF
C 12.011 C.pz-n-rrkjus_psl.0.1.UPF


ATOMIC_POSITIONS {angstrom}
C          1.25700        2.13800        0.18550
H          0.32070        1.59810        0.19560
C          1.25740        3.54620        0.17330
H          0.32080        4.08660        0.18170
C          3.69980        2.13310        0.18310
C          2.47510        1.43170        0.19160
C          3.69980        3.55040        0.15740
C          2.47620        4.25220        0.15380
C          6.14510        2.13310        0.20690
C          4.92210        1.43000        0.20630
C          6.14480        3.55040        0.16850
C          4.92260        4.25330        0.14220
C          8.58810        2.13870        0.25110
C          7.36870        1.43220        0.25030
C          8.58850        3.54640        0.19600
C          7.36950        4.25150        0.15940
H          9.52350        1.59990        0.29140
H          9.52440        4.08550        0.18290



K_POINTS {crystal}
101			
0	0.000	0	1
0	0.005	0	1
0	0.010	0	1
0	0.015	0	1
0	0.020	0	1
0	0.025	0	1
0	0.030	0	1
0	0.035	0	1
0	0.040	0	1
0	0.045	0	1
0	0.050	0	1
0	0.055	0	1
0	0.060	0	1
0	0.065	0	1
0	0.070	0	1
0	0.075	0	1
0	0.080	0	1
0	0.085	0	1
0	0.090	0	1
0	0.095	0	1
0	0.100	0	1
0	0.105	0	1
0	0.110	0	1
0	0.115	0	1
0	0.120	0	1
0	0.125	0	1
0	0.130	0	1
0	0.135	0	1
0	0.140	0	1
0	0.145	0	1
0	0.150	0	1
0	0.155	0	1
0	0.160	0	1
0	0.165	0	1
0	0.170	0	1
0	0.175	0	1
0	0.180	0	1
0	0.185	0	1
0	0.190	0	1
0	0.195	0	1
0	0.200	0	1
0	0.205	0	1
0	0.210	0	1
0	0.215	0	1
0	0.220	0	1
0	0.225	0	1
0	0.230	0	1
0	0.235	0	1
0	0.240	0	1
0	0.245	0	1
0	0.250	0	1
0	0.255	0	1
0	0.260	0	1
0	0.265	0	1
0	0.270	0	1
0	0.275	0	1
0	0.280	0	1
0	0.285	0	1
0	0.290	0	1
0	0.295	0	1
0	0.300	0	1
0	0.305	0	1
0	0.310	0	1
0	0.315	0	1
0	0.320	0	1
0	0.325	0	1
0	0.330	0	1
0	0.335	0	1
0	0.340	0	1
0	0.345	0	1
0	0.350	0	1
0	0.355	0	1
0	0.360	0	1
0	0.365	0	1
0	0.370	0	1
0	0.375	0	1
0	0.380	0	1
0	0.385	0	1
0	0.390	0	1
0	0.395	0	1
0	0.400	0	1
0	0.405	0	1
0	0.410	0	1
0	0.415	0	1
0	0.420	0	1
0	0.425	0	1
0	0.430	0	1
0	0.435	0	1
0	0.440	0	1
0	0.445	0	1
0	0.450	0	1
0	0.455	0	1
0	0.460	0	1
0	0.465	0	1
0	0.470	0	1
0	0.475	0	1
0	0.480	0	1
0	0.485	0	1
0	0.490	0	1
0	0.495	0	1
0	0.500	0	1

